(set-logic QF_S)
(declare-fun _var_0xINPUT_223211_() String)
(declare-fun __woorpje_diseq_pref0_() String)
(declare-fun __woorpje_diseq_suf_l0_() String)
(declare-fun __woorpje_diseq_suf_r0_() String)
(declare-fun __woorpje_diseq_pref1_() String)
(declare-fun __woorpje_diseq_suf_l1_() String)
(declare-fun __woorpje_diseq_suf_r1_() String)
(assert (=(str.++  "YY8CBEMy6Q" "")(str.++ __woorpje_diseq_pref0_  "y" __woorpje_diseq_suf_l0_  "")) )
(assert (=(str.++ _var_0xINPUT_223211_  "")(str.++ __woorpje_diseq_pref0_  "Q" __woorpje_diseq_suf_r0_  "")) )
(assert  (<= (* (str.len _var_0xINPUT_223211_)(- 1)) (- 1)) )
(check-sat)
